NAME : kro150.53310.tour
COMMENT : Cost = 0_53310
COMMENT : Found by LKH [Keld Helsgaun] Thu Nov 16 20:48:33 2017
TYPE : TOUR
DIMENSION : 169
TOUR_SECTION
1
58
151
51
152
110
153
25
154
108
155
28
156
77
157
3
158
145
159
131
160
140
161
69
162
117
163
20
164
142
165
150
166
135
167
23
168
148
138
133
89
31
122
42
8
92
80
130
79
132
47
32
15
141
127
21
72
113
10
24
90
6
49
75
19
97
139
143
119
118
129
66
4
53
124
70
94
134
137
18
16
38
36
111
99
102
26
88
104
59
84
74
63
11
114
109
91
98
45
86
60
7
35
9
120
12
115
149
34
46
123
128
43
146
17
71
83
41
27
52
62
136
105
29
125
106
22
67
101
56
65
76
33
103
5
81
78
121
87
57
100
14
48
30
96
37
147
95
13
126
82
116
50
39
107
112
55
85
68
73
44
2
144
64
54
40
93
169
61
-1
EOF
